(set-logic ALL)
(declare-fun i1 () Int)
(declare-fun it1238 () Int)
(declare-fun it1239 () Int)
(declare-fun i2 () Int)
(declare-fun i3 () Int)
(declare-fun it1240 () Int)
(declare-fun i4 () Int)
(declare-fun it1241 () Int)
(declare-fun it1242 () Int)
(declare-fun i5 () Int)
(declare-fun i6 () Int)
(declare-fun it1243 () Int)
(declare-fun i7 () Int)
(declare-fun it1244 () Int)
(declare-fun it1245 () Int)
(declare-fun it1246 () Int)
(declare-fun it1247 () Int)
(declare-fun it1248 () Int)
(declare-fun it1249 () Int)
(declare-fun it1250 () Int)
(declare-fun it1251 () Int)
(declare-fun it1638 () Int)
(declare-fun it1639 () Int)
(declare-fun it1640 () Int)
(declare-fun it1641 () Int)
(declare-fun it1642 () Int)
(declare-fun it1643 () Int)
(declare-fun it1644 () Int)
(declare-fun it1645 () Int)
(declare-fun it1646 () Int)
(declare-fun it1647 () Int)
(declare-fun it1648 () Int)
(declare-fun it1649 () Int)
(declare-fun it1650 () Int)
(declare-fun it1651 () Int)
(declare-fun it1652 () Int)
(declare-fun it1653 () Int)
(declare-fun it1654 () Int)
(declare-fun it1655 () Int)
(declare-fun it1656 () Int)
(declare-fun it1657 () Int)
(declare-fun it1658 () Int)
(declare-fun it1702 () Int)
(declare-fun it1703 () Int)
(declare-fun it1704 () Int)
(declare-fun it1705 () Int)
(declare-fun it1706 () Int)
(declare-fun it1707 () Int)
(declare-fun it1708 () Int)
(declare-fun it1709 () Int)
(declare-fun it1710 () Int)
(declare-fun it1711 () Int)
(declare-fun it1712 () Int)
(declare-fun it1713 () Int)
(declare-fun it1714 () Int)
(declare-fun it1715 () Int)
(declare-fun it1716 () Int)
(declare-fun it1717 () Int)
(declare-fun it1718 () Int)
(declare-fun it1719 () Int)
(declare-fun it1720 () Int)
(declare-fun it1721 () Int)
(declare-fun it1722 () Int)
(declare-fun it101 () Int)
(assert (= (+ i1 (- 1)) 0))
(assert (= (+ it1238 (- 5)) 0))
(assert (= (+ (* i2 (- 1)) it1239 (- 4)) 0))
(assert (= (+ it1240 (* i3 (- 1))) 0))
(assert (= (+ it1241 (* i4 (- 1))) 0))
(assert (= (+ (* i5 (- 1)) it1242) 0))
(assert (= (+ it1243 (* i6 (- 1))) 0))
(assert (= (+ it1244 (* i7 (- 1))) 0))
(assert (and (= (+ it1238 (- 5)) 0) (> (+ it1241 (- 2)) 0)))
(assert (= (+ it1245 (- 18)) 0))
(assert (= (+ (* it1239 (- 1)) it1246 (- 12)) 0))
(assert (= (+ (* it1240 (- 1)) it1247) 0))
(assert (= (+ (* it1241 (- 1)) it1248) 0))
(assert (= (+ it1249 (* it1242 (- 1))) 0))
(assert (= it1250 0))
(assert (= (+ (* it1244 (- 1)) it1251) 0))
(assert (and (= (+ it1245 (- 18)) 0) (<= (+ it1250 (* it1248 (- 1)) 2) 0)))
(assert (= (+ it1638 (- 20)) 0))
(assert (= (+ it1639 (* it1246 (- 1)) (- 2)) 0))
(assert (= (+ (* it1247 (- 1)) it1640) 0))
(assert (= (+ it1641 (* it1248 (- 1))) 0))
(assert (= it1642 0))
(assert (= (+ it1643 (* it1250 (- 1))) 0))
(assert (= (+ it1644 (* it1251 (- 1))) 0))
(assert (and (= (+ it1638 (- 20)) 0) (<= (+ it1643 (* it1641 (- 1)) (* it1642 2) 3) 0)))
(assert (= (+ it1645 (- 21)) 0))
(assert (= (+ (* it1639 (- 1)) it1646 (- 1)) 0))
(assert (= (+ (* it1640 (- 1)) it1647) 0))
(assert (= (+ (* it1641 (- 1)) it1648) 0))
(assert (= (+ it1649 (* it1642 (- 1))) 0))
(assert (= (+ (* it1643 (- 1)) it1650) 0))
(assert (= (+ (* it1644 (- 1)) it1651) 0))
(assert (and (= (+ (* it1649 2) it1650 (* it1648 (- 1)) 3) 0) (= (+ it1645 (- 21)) 0)))
(assert (= (+ it1652 (- 26)) 0))
(assert (= (+ (* it1646 (- 1)) it1653 (- 2)) 0))
(assert (= (+ (* it1647 (- 1)) it1654) 0))
(assert (= (+ it1655 (* it1648 (- 1))) 0))
(assert (= (+ (* it1649 (- 1)) it1656) 0))
(assert (= (+ (* it1650 (- 1)) it1657) 0))
(assert (= (+ (* it1649 (- 2)) it1658 (- 1)) 0))
(assert (= (+ it1652 (- 26)) 0))
(assert (= (+ it1702 (- 20)) 0))
(assert (= (+ it1703 (* it1653 (- 1)) (- 2)) 0))
(assert (= (+ it1704 (* it1654 (- 1))) 0))
(assert (= (+ (* it1655 (- 1)) it1705) 0))
(assert (= (+ it1706 (* it1658 (- 1))) 0))
(assert (= (+ it1707 (* it1657 (- 1))) 0))
(assert (= (+ it1708 (* it1658 (- 1))) 0))
(assert (and (= (+ it1702 (- 20)) 0) (> (+ (* it1706 2) it1707 (* it1705 (- 1)) 3) 0)))
(assert (= (+ it1709 (- 18)) 0))
(assert (= (+ (* it1703 (- 1)) it1710 (- 4)) 0))
(assert (= (+ (* it1707 (- 1)) it1711 (- 1)) 0))
(assert (= (+ (* it1705 (- 1)) it1712) 0))
(assert (= (+ (* it1706 (- 1)) it1713) 0))
(assert (= (+ (* it1707 (- 1)) it1714 (- 1)) 0))
(assert (= (+ (* it1708 (- 1)) it1715) 0))
(assert (and (<= (+ it1714 (* it1712 (- 1)) 2) 0) (= (+ it1709 (- 18)) 0)))
(assert (= (+ it1716 (- 20)) 0))
(assert (= (+ (* it1710 (- 1)) it1717 (- 2)) 0))
(assert (= (+ (* it1711 (- 1)) it1718) 0))
(assert (= (+ it1719 (* it1712 (- 1))) 0))
(assert (= it1720 0))
(assert (= (+ (* it1714 (- 1)) it1721) 0))
(assert (= (+ it1722 (* it1715 (- 1))) 0))
(assert (let ((a!1 (* (* (exp 2 (+ it101 (- 1))) (+ 0 it1720)) (+ 0 2)))
      (a!3 (* (* (exp 2 (+ it101 (- 1))) (+ 0 it1720)) (+ 0 (- 2)))))
(let ((a!2 (+ (* (exp 2 (+ it101 (- 1))) (+ 0 2))
              (+ 0 (* it1719 (- 1)))
              a!1
              (+ 0 it1721)
              (+ 0 1)))
      (a!4 (+ (* (exp 2 (+ it101 (- 1))) (+ 0 (- 2)))
              (+ 0 it1719)
              a!3
              (+ 0 (* it1721 (- 1)))
              (+ 0 (- 1)))))
  (and (>= (+ (* it1716 (- 1)) 20) 0)
       (>= (+ it1716 (- 20)) 0)
       (>= (+ it1719 (* it1720 (- 2)) (* it1721 (- 1)) (- 3)) 0)
       (>= a!2 (+ 0 0))
       (>= (+ it101 (- 1)) 0)
       (>= a!4 (+ 0 0))
       (>= (+ (* it1719 (- 1)) (* it1720 2) it1721 3) 0)))))
(check-sat)
